(set-logic QF_NRA)
(set-info :source |Benchmarks generated from hycomp (https://es-static.fbk.eu/tools/hycomp/). BMC instances of non-linear hybrid automata taken from: Alessandro Cimatti, Sergio Mover, Stefano Tonetta, A quantifier-free SMT encoding of non-linear hybrid automata, FMCAD 2012 and Alessandro Cimatti, Sergio Mover, Stefano Tonetta, Quantier-free encoding of invariants for Hybrid Systems, Formal Methods in System Design. This instance solves a BMC problem of depth 4 and uses the encoding obtained with quantifier elimination using redlog encoding. Contacts: Sergio Mover (mover@fbk.eu), Stefano Tonetta (tonettas@fbk.eu), Alessandro Cimatti (cimatti@fbk.eu).|)
(set-info :smt-lib-version 2.0)
(set-info :category "industrial")
(set-info :status unsat)
;; MathSAT API call trace
;; generated on Mon Mar 19 10:50:11 2012
(declare-fun b.delta__AT3 () Real)
(declare-fun b.counter.2__AT3 () Bool)
(declare-fun b.EVENT.0__AT3 () Bool)
(declare-fun b.counter.3__AT3 () Bool)
(declare-fun b.EVENT.0__AT0 () Bool)
(declare-fun b.time__AT1 () Real)
(declare-fun b.EVENT.1__AT3 () Bool)
(declare-fun b.time__AT2 () Real)
(declare-fun b.y__AT0 () Real)
(declare-fun b.delta__AT2 () Real)
(declare-fun b.counter.0__AT0 () Bool)
(declare-fun b.counter.2__AT0 () Bool)
(declare-fun b.speed_y__AT3 () Real)
(declare-fun b.EVENT.0__AT2 () Bool)
(declare-fun b.counter.1__AT0 () Bool)
(declare-fun b.counter.1__AT1 () Bool)
(declare-fun b.y__AT2 () Real)
(declare-fun b.EVENT.1__AT2 () Bool)
(declare-fun b.counter.2__AT1 () Bool)
(declare-fun speed_loss__AT0 () Real)
(declare-fun b.speed_y__AT0 () Real)
(declare-fun b.event_is_timed__AT1 () Bool)
(declare-fun b.counter.0__AT2 () Bool)
(declare-fun b.event_is_timed__AT4 () Bool)
(declare-fun b.event_is_timed__AT0 () Bool)
(declare-fun b.counter.1__AT2 () Bool)
(declare-fun b.speed_y__AT2 () Real)
(declare-fun b.counter.3__AT1 () Bool)
(declare-fun b.y__AT4 () Real)
(declare-fun b.counter.2__AT2 () Bool)
(declare-fun b.counter.0__AT4 () Bool)
(declare-fun b.y__AT1 () Real)
(declare-fun b.counter.3__AT2 () Bool)
(declare-fun b.counter.1__AT4 () Bool)
(declare-fun b.counter.0__AT1 () Bool)
(declare-fun b.counter.3__AT0 () Bool)
(declare-fun b.delta__AT4 () Real)
(declare-fun b.counter.2__AT4 () Bool)
(declare-fun b.EVENT.0__AT4 () Bool)
(declare-fun b.time__AT4 () Real)
(declare-fun b.delta__AT1 () Real)
(declare-fun b.counter.3__AT4 () Bool)
(declare-fun b.event_is_timed__AT3 () Bool)
(declare-fun b.EVENT.1__AT4 () Bool)
(declare-fun b.EVENT.0__AT1 () Bool)
(declare-fun b.EVENT.1__AT0 () Bool)
(declare-fun b.delta__AT0 () Real)
(declare-fun b.EVENT.1__AT1 () Bool)
(declare-fun b.y__AT3 () Real)
(declare-fun b.speed_y__AT4 () Real)
(declare-fun b.counter.0__AT3 () Bool)
(declare-fun b.event_is_timed__AT2 () Bool)
(declare-fun b.speed_y__AT1 () Real)
(declare-fun b.time__AT3 () Real)
(declare-fun b.counter.1__AT3 () Bool)
(declare-fun b.time__AT0 () Real)
(assert (let ((.def_876 (* 49.0 b.delta__AT4)))
(let ((.def_877 (* b.delta__AT4 .def_876)))
(let ((.def_878 (* (- 1.0) .def_877)))
(let ((.def_874 (* 10.0 b.speed_y__AT4)))
(let ((.def_875 (* b.delta__AT4 .def_874)))
(let ((.def_879 (+ .def_875 .def_878)))
(let ((.def_880 (* 10.0 b.y__AT4)))
(let ((.def_882 (+ .def_880 .def_879)))
(let ((.def_883 (<= 0.0 .def_882)))
(let ((.def_910 (not .def_883)))
(let ((.def_894 (* (- 49.0) b.delta__AT4)))
(let ((.def_885 (* 5.0 b.speed_y__AT4)))
(let ((.def_895 (+ .def_885 .def_894)))
(let ((.def_896 (<= 0.0 .def_895)))
(let ((.def_911 (and .def_896 .def_910)))
(let ((.def_906 (<= b.speed_y__AT4 0.0 )))
(let ((.def_852 (<= 0.0 b.y__AT4)))
(let ((.def_909 (or .def_852 .def_906)))
(let ((.def_912 (or .def_909 .def_911)))
(let ((.def_905 (<= b.y__AT4 0.0 )))
(let ((.def_907 (and .def_905 .def_906)))
(let ((.def_900 (<= .def_895 0.0 )))
(let ((.def_901 (not .def_900)))
(let ((.def_898 (= .def_882 0.0 )))
(let ((.def_899 (not .def_898)))
(let ((.def_902 (or .def_899 .def_901)))
(let ((.def_897 (or .def_883 .def_896)))
(let ((.def_903 (and .def_897 .def_902)))
(let ((.def_886 (* b.speed_y__AT4 .def_885)))
(let ((.def_887 (* 98.0 b.y__AT4)))
(let ((.def_889 (+ .def_887 .def_886)))
(let ((.def_892 (<= .def_889 0.0 )))
(let ((.def_893 (not .def_892)))
(let ((.def_904 (or .def_893 .def_903)))
(let ((.def_908 (or .def_904 .def_907)))
(let ((.def_913 (and .def_908 .def_912)))
(let ((.def_890 (<= 0.0 .def_889)))
(let ((.def_891 (not .def_890)))
(let ((.def_914 (or .def_891 .def_913)))
(let ((.def_872 (<= 0.0 b.delta__AT4)))
(let ((.def_873 (not .def_872)))
(let ((.def_884 (or .def_873 .def_883)))
(let ((.def_915 (and .def_884 .def_914)))
(let ((.def_849 (not b.EVENT.0__AT4)))
(let ((.def_847 (not b.EVENT.1__AT4)))
(let ((.def_869 (and .def_847 .def_849)))
(let ((.def_870 (not .def_869)))
(let ((.def_916 (or .def_870 .def_915)))
(let ((.def_550 (not b.counter.0__AT3)))
(let ((.def_862 (or b.counter.1__AT3 .def_550)))
(let ((.def_863 (or b.counter.2__AT3 .def_862)))
(let ((.def_538 (not b.counter.1__AT3)))
(let ((.def_857 (and .def_538 .def_550)))
(let ((.def_545 (not b.counter.2__AT3)))
(let ((.def_861 (or .def_545 .def_857)))
(let ((.def_864 (and .def_861 .def_863)))
(let ((.def_865 (or b.counter.3__AT3 .def_864)))
(let ((.def_858 (or b.counter.2__AT3 .def_857)))
(let ((.def_856 (or .def_538 .def_545)))
(let ((.def_859 (and .def_856 .def_858)))
(let ((.def_560 (not b.counter.3__AT3)))
(let ((.def_860 (or .def_560 .def_859)))
(let ((.def_866 (and .def_860 .def_865)))
(let ((.def_66 (<= speed_loss__AT0 (/ 1 2))))
(let ((.def_63 (<= (/ 1 10) speed_loss__AT0)))
(let ((.def_67 (and .def_63 .def_66)))
(let ((.def_853 (and .def_67 .def_852)))
(let ((.def_850 (or .def_847 .def_849)))
(let ((.def_9 (not b.counter.0__AT4)))
(let ((.def_6 (not b.counter.1__AT4)))
(let ((.def_840 (or .def_6 .def_9)))
(let ((.def_844 (or b.counter.3__AT4 .def_840)))
(let ((.def_841 (or b.counter.2__AT4 .def_840)))
(let ((.def_4 (not b.counter.2__AT4)))
(let ((.def_839 (or .def_4 .def_9)))
(let ((.def_842 (and .def_839 .def_841)))
(let ((.def_14 (not b.counter.3__AT4)))
(let ((.def_843 (or .def_14 .def_842)))
(let ((.def_845 (and .def_843 .def_844)))
(let ((.def_851 (and .def_845 .def_850)))
(let ((.def_854 (and .def_851 .def_853)))
(let ((.def_681 (<= 0.0 b.delta__AT3)))
(let ((.def_658 (not b.EVENT.0__AT3)))
(let ((.def_656 (not b.EVENT.1__AT3)))
(let ((.def_678 (and .def_656 .def_658)))
(let ((.def_679 (not .def_678)))
(let ((.def_835 (or .def_679 .def_681)))
(let ((.def_836 (or b.EVENT.1__AT3 .def_835)))
(let ((.def_773 (= b.counter.0__AT4 b.counter.0__AT3)))
(let ((.def_771 (= b.counter.1__AT4 b.counter.1__AT3)))
(let ((.def_769 (= b.counter.2__AT4 b.counter.2__AT3)))
(let ((.def_768 (= b.counter.3__AT4 b.counter.3__AT3)))
(let ((.def_770 (and .def_768 .def_769)))
(let ((.def_772 (and .def_770 .def_771)))
(let ((.def_774 (and .def_772 .def_773)))
(let ((.def_832 (or .def_679 .def_774)))
(let ((.def_833 (or b.EVENT.1__AT3 .def_832)))
(let ((.def_824 (* (- 5.0) b.speed_y__AT4)))
(let ((.def_703 (* (- 49.0) b.delta__AT3)))
(let ((.def_825 (+ .def_703 .def_824)))
(let ((.def_694 (* 5.0 b.speed_y__AT3)))
(let ((.def_826 (+ .def_694 .def_825)))
(let ((.def_827 (= .def_826 0.0 )))
(let ((.def_815 (* b.speed_y__AT3 b.delta__AT3)))
(let ((.def_816 (* 10.0 .def_815)))
(let ((.def_813 (* b.delta__AT3 b.delta__AT3)))
(let ((.def_814 (* (- 49.0) .def_813)))
(let ((.def_817 (+ .def_814 .def_816)))
(let ((.def_818 (* (- 10.0) b.y__AT4)))
(let ((.def_821 (+ .def_818 .def_817)))
(let ((.def_689 (* 10.0 b.y__AT3)))
(let ((.def_822 (+ .def_689 .def_821)))
(let ((.def_823 (= .def_822 0.0 )))
(let ((.def_828 (and .def_823 .def_827)))
(let ((.def_829 (or .def_679 .def_828)))
(let ((.def_779 (= b.y__AT3 b.y__AT4)))
(let ((.def_767 (= b.speed_y__AT3 b.speed_y__AT4)))
(let ((.def_810 (and .def_767 .def_779)))
(let ((.def_807 (= b.delta__AT3 0.0 )))
(let ((.def_808 (and .def_678 .def_807)))
(let ((.def_809 (not .def_808)))
(let ((.def_811 (or .def_809 .def_810)))
(let ((.def_812 (or b.EVENT.1__AT3 .def_811)))
(let ((.def_830 (and .def_812 .def_829)))
(let ((.def_789 (= b.time__AT3 b.time__AT4)))
(let ((.def_801 (and .def_779 .def_789)))
(let ((.def_802 (and .def_767 .def_801)))
(let ((.def_803 (and .def_774 .def_802)))
(let ((.def_804 (or .def_656 .def_803)))
(let ((.def_792 (* (- 1.0) b.time__AT4)))
(let ((.def_795 (+ b.delta__AT3 .def_792)))
(let ((.def_796 (+ b.time__AT3 .def_795)))
(let ((.def_797 (= .def_796 0.0 )))
(let ((.def_798 (or .def_679 .def_797)))
(let ((.def_799 (or b.EVENT.1__AT3 .def_798)))
(let ((.def_790 (or .def_678 .def_789)))
(let ((.def_791 (or b.EVENT.1__AT3 .def_790)))
(let ((.def_800 (and .def_791 .def_799)))
(let ((.def_805 (and .def_800 .def_804)))
(let ((.def_785 (= .def_679 b.event_is_timed__AT4)))
(let ((.def_783 (= b.event_is_timed__AT3 .def_678)))
(let ((.def_786 (and .def_783 .def_785)))
(let ((.def_775 (and .def_767 .def_774)))
(let ((.def_728 (<= 0.0 b.speed_y__AT3)))
(let ((.def_729 (not .def_728)))
(let ((.def_727 (= b.y__AT3 0.0 )))
(let ((.def_730 (and .def_727 .def_729)))
(let ((.def_776 (or .def_730 .def_775)))
(let ((.def_744 (or .def_9 b.counter.0__AT3)))
(let ((.def_743 (or b.counter.0__AT4 .def_550)))
(let ((.def_745 (and .def_743 .def_744)))
(let ((.def_746 (and .def_6 .def_745)))
(let ((.def_747 (or b.counter.1__AT3 .def_746)))
(let ((.def_742 (or b.counter.1__AT4 .def_538)))
(let ((.def_748 (and .def_742 .def_747)))
(let ((.def_759 (and .def_4 .def_748)))
(let ((.def_760 (or b.counter.2__AT3 .def_759)))
(let ((.def_754 (and .def_6 .def_550)))
(let ((.def_755 (or b.counter.1__AT3 .def_754)))
(let ((.def_756 (and .def_742 .def_755)))
(let ((.def_757 (and b.counter.2__AT4 .def_756)))
(let ((.def_758 (or .def_545 .def_757)))
(let ((.def_761 (and .def_758 .def_760)))
(let ((.def_762 (and b.counter.3__AT4 .def_761)))
(let ((.def_763 (or b.counter.3__AT3 .def_762)))
(let ((.def_749 (and b.counter.2__AT4 .def_748)))
(let ((.def_750 (or b.counter.2__AT3 .def_749)))
(let ((.def_738 (or b.counter.1__AT4 b.counter.1__AT3)))
(let ((.def_736 (and .def_6 b.counter.0__AT4)))
(let ((.def_737 (or .def_538 .def_736)))
(let ((.def_739 (and .def_737 .def_738)))
(let ((.def_740 (and .def_4 .def_739)))
(let ((.def_741 (or .def_545 .def_740)))
(let ((.def_751 (and .def_741 .def_750)))
(let ((.def_752 (and .def_14 .def_751)))
(let ((.def_753 (or .def_560 .def_752)))
(let ((.def_764 (and .def_753 .def_763)))
(let ((.def_732 (* (- 1.0) b.speed_y__AT3)))
(let ((.def_133 (* (- 1.0) speed_loss__AT0)))
(let ((.def_134 (+ 1.0 .def_133)))
(let ((.def_733 (* .def_134 .def_732)))
(let ((.def_735 (= .def_733 b.speed_y__AT4)))
(let ((.def_765 (and .def_735 .def_764)))
(let ((.def_731 (not .def_730)))
(let ((.def_766 (or .def_731 .def_765)))
(let ((.def_777 (and .def_766 .def_776)))
(let ((.def_780 (and .def_777 .def_779)))
(let ((.def_781 (or .def_678 .def_780)))
(let ((.def_782 (or b.EVENT.1__AT3 .def_781)))
(let ((.def_787 (and .def_782 .def_786)))
(let ((.def_806 (and .def_787 .def_805)))
(let ((.def_831 (and .def_806 .def_830)))
(let ((.def_834 (and .def_831 .def_833)))
(let ((.def_837 (and .def_834 .def_836)))
(let ((.def_838 (and .def_656 .def_837)))
(let ((.def_855 (and .def_838 .def_854)))
(let ((.def_867 (and .def_855 .def_866)))
(let ((.def_685 (* 49.0 b.delta__AT3)))
(let ((.def_686 (* b.delta__AT3 .def_685)))
(let ((.def_687 (* (- 1.0) .def_686)))
(let ((.def_683 (* 10.0 b.speed_y__AT3)))
(let ((.def_684 (* b.delta__AT3 .def_683)))
(let ((.def_688 (+ .def_684 .def_687)))
(let ((.def_691 (+ .def_689 .def_688)))
(let ((.def_692 (<= 0.0 .def_691)))
(let ((.def_719 (not .def_692)))
(let ((.def_704 (+ .def_694 .def_703)))
(let ((.def_705 (<= 0.0 .def_704)))
(let ((.def_720 (and .def_705 .def_719)))
(let ((.def_715 (<= b.speed_y__AT3 0.0 )))
(let ((.def_661 (<= 0.0 b.y__AT3)))
(let ((.def_718 (or .def_661 .def_715)))
(let ((.def_721 (or .def_718 .def_720)))
(let ((.def_714 (<= b.y__AT3 0.0 )))
(let ((.def_716 (and .def_714 .def_715)))
(let ((.def_709 (<= .def_704 0.0 )))
(let ((.def_710 (not .def_709)))
(let ((.def_707 (= .def_691 0.0 )))
(let ((.def_708 (not .def_707)))
(let ((.def_711 (or .def_708 .def_710)))
(let ((.def_706 (or .def_692 .def_705)))
(let ((.def_712 (and .def_706 .def_711)))
(let ((.def_695 (* b.speed_y__AT3 .def_694)))
(let ((.def_696 (* 98.0 b.y__AT3)))
(let ((.def_698 (+ .def_696 .def_695)))
(let ((.def_701 (<= .def_698 0.0 )))
(let ((.def_702 (not .def_701)))
(let ((.def_713 (or .def_702 .def_712)))
(let ((.def_717 (or .def_713 .def_716)))
(let ((.def_722 (and .def_717 .def_721)))
(let ((.def_699 (<= 0.0 .def_698)))
(let ((.def_700 (not .def_699)))
(let ((.def_723 (or .def_700 .def_722)))
(let ((.def_682 (not .def_681)))
(let ((.def_693 (or .def_682 .def_692)))
(let ((.def_724 (and .def_693 .def_723)))
(let ((.def_725 (or .def_679 .def_724)))
(let ((.def_351 (not b.counter.0__AT2)))
(let ((.def_671 (or b.counter.1__AT2 .def_351)))
(let ((.def_672 (or b.counter.2__AT2 .def_671)))
(let ((.def_339 (not b.counter.1__AT2)))
(let ((.def_666 (and .def_339 .def_351)))
(let ((.def_346 (not b.counter.2__AT2)))
(let ((.def_670 (or .def_346 .def_666)))
(let ((.def_673 (and .def_670 .def_672)))
(let ((.def_674 (or b.counter.3__AT2 .def_673)))
(let ((.def_667 (or b.counter.2__AT2 .def_666)))
(let ((.def_665 (or .def_339 .def_346)))
(let ((.def_668 (and .def_665 .def_667)))
(let ((.def_361 (not b.counter.3__AT2)))
(let ((.def_669 (or .def_361 .def_668)))
(let ((.def_675 (and .def_669 .def_674)))
(let ((.def_662 (and .def_67 .def_661)))
(let ((.def_659 (or .def_656 .def_658)))
(let ((.def_649 (or .def_538 .def_550)))
(let ((.def_653 (or b.counter.3__AT3 .def_649)))
(let ((.def_650 (or b.counter.2__AT3 .def_649)))
(let ((.def_648 (or .def_545 .def_550)))
(let ((.def_651 (and .def_648 .def_650)))
(let ((.def_652 (or .def_560 .def_651)))
(let ((.def_654 (and .def_652 .def_653)))
(let ((.def_660 (and .def_654 .def_659)))
(let ((.def_663 (and .def_660 .def_662)))
(let ((.def_482 (<= 0.0 b.delta__AT2)))
(let ((.def_459 (not b.EVENT.0__AT2)))
(let ((.def_457 (not b.EVENT.1__AT2)))
(let ((.def_479 (and .def_457 .def_459)))
(let ((.def_480 (not .def_479)))
(let ((.def_644 (or .def_480 .def_482)))
(let ((.def_645 (or b.EVENT.1__AT2 .def_644)))
(let ((.def_582 (= b.counter.0__AT2 b.counter.0__AT3)))
(let ((.def_580 (= b.counter.1__AT2 b.counter.1__AT3)))
(let ((.def_578 (= b.counter.2__AT2 b.counter.2__AT3)))
(let ((.def_577 (= b.counter.3__AT2 b.counter.3__AT3)))
(let ((.def_579 (and .def_577 .def_578)))
(let ((.def_581 (and .def_579 .def_580)))
(let ((.def_583 (and .def_581 .def_582)))
(let ((.def_641 (or .def_480 .def_583)))
(let ((.def_642 (or b.EVENT.1__AT2 .def_641)))
(let ((.def_633 (* (- 5.0) b.speed_y__AT3)))
(let ((.def_504 (* (- 49.0) b.delta__AT2)))
(let ((.def_634 (+ .def_504 .def_633)))
(let ((.def_495 (* 5.0 b.speed_y__AT2)))
(let ((.def_635 (+ .def_495 .def_634)))
(let ((.def_636 (= .def_635 0.0 )))
(let ((.def_624 (* b.speed_y__AT2 b.delta__AT2)))
(let ((.def_625 (* 10.0 .def_624)))
(let ((.def_622 (* b.delta__AT2 b.delta__AT2)))
(let ((.def_623 (* (- 49.0) .def_622)))
(let ((.def_626 (+ .def_623 .def_625)))
(let ((.def_627 (* (- 10.0) b.y__AT3)))
(let ((.def_630 (+ .def_627 .def_626)))
(let ((.def_490 (* 10.0 b.y__AT2)))
(let ((.def_631 (+ .def_490 .def_630)))
(let ((.def_632 (= .def_631 0.0 )))
(let ((.def_637 (and .def_632 .def_636)))
(let ((.def_638 (or .def_480 .def_637)))
(let ((.def_588 (= b.y__AT2 b.y__AT3)))
(let ((.def_576 (= b.speed_y__AT2 b.speed_y__AT3)))
(let ((.def_619 (and .def_576 .def_588)))
(let ((.def_616 (= b.delta__AT2 0.0 )))
(let ((.def_617 (and .def_479 .def_616)))
(let ((.def_618 (not .def_617)))
(let ((.def_620 (or .def_618 .def_619)))
(let ((.def_621 (or b.EVENT.1__AT2 .def_620)))
(let ((.def_639 (and .def_621 .def_638)))
(let ((.def_598 (= b.time__AT2 b.time__AT3)))
(let ((.def_610 (and .def_588 .def_598)))
(let ((.def_611 (and .def_576 .def_610)))
(let ((.def_612 (and .def_583 .def_611)))
(let ((.def_613 (or .def_457 .def_612)))
(let ((.def_601 (* (- 1.0) b.time__AT3)))
(let ((.def_604 (+ b.delta__AT2 .def_601)))
(let ((.def_605 (+ b.time__AT2 .def_604)))
(let ((.def_606 (= .def_605 0.0 )))
(let ((.def_607 (or .def_480 .def_606)))
(let ((.def_608 (or b.EVENT.1__AT2 .def_607)))
(let ((.def_599 (or .def_479 .def_598)))
(let ((.def_600 (or b.EVENT.1__AT2 .def_599)))
(let ((.def_609 (and .def_600 .def_608)))
(let ((.def_614 (and .def_609 .def_613)))
(let ((.def_594 (= .def_480 b.event_is_timed__AT3)))
(let ((.def_592 (= b.event_is_timed__AT2 .def_479)))
(let ((.def_595 (and .def_592 .def_594)))
(let ((.def_584 (and .def_576 .def_583)))
(let ((.def_529 (<= 0.0 b.speed_y__AT2)))
(let ((.def_530 (not .def_529)))
(let ((.def_528 (= b.y__AT2 0.0 )))
(let ((.def_531 (and .def_528 .def_530)))
(let ((.def_585 (or .def_531 .def_584)))
(let ((.def_551 (or b.counter.0__AT2 .def_550)))
(let ((.def_549 (or .def_351 b.counter.0__AT3)))
(let ((.def_552 (and .def_549 .def_551)))
(let ((.def_553 (and .def_538 .def_552)))
(let ((.def_554 (or b.counter.1__AT2 .def_553)))
(let ((.def_548 (or .def_339 b.counter.1__AT3)))
(let ((.def_555 (and .def_548 .def_554)))
(let ((.def_568 (and .def_545 .def_555)))
(let ((.def_569 (or b.counter.2__AT2 .def_568)))
(let ((.def_563 (and .def_351 .def_538)))
(let ((.def_564 (or b.counter.1__AT2 .def_563)))
(let ((.def_565 (and .def_548 .def_564)))
(let ((.def_566 (and b.counter.2__AT3 .def_565)))
(let ((.def_567 (or .def_346 .def_566)))
(let ((.def_570 (and .def_567 .def_569)))
(let ((.def_571 (and b.counter.3__AT3 .def_570)))
(let ((.def_572 (or b.counter.3__AT2 .def_571)))
(let ((.def_556 (and b.counter.2__AT3 .def_555)))
(let ((.def_557 (or b.counter.2__AT2 .def_556)))
(let ((.def_542 (or b.counter.1__AT2 b.counter.1__AT3)))
(let ((.def_540 (and .def_538 b.counter.0__AT3)))
(let ((.def_541 (or .def_339 .def_540)))
(let ((.def_543 (and .def_541 .def_542)))
(let ((.def_546 (and .def_543 .def_545)))
(let ((.def_547 (or .def_346 .def_546)))
(let ((.def_558 (and .def_547 .def_557)))
(let ((.def_561 (and .def_558 .def_560)))
(let ((.def_562 (or .def_361 .def_561)))
(let ((.def_573 (and .def_562 .def_572)))
(let ((.def_533 (* (- 1.0) b.speed_y__AT2)))
(let ((.def_534 (* .def_134 .def_533)))
(let ((.def_536 (= .def_534 b.speed_y__AT3)))
(let ((.def_574 (and .def_536 .def_573)))
(let ((.def_532 (not .def_531)))
(let ((.def_575 (or .def_532 .def_574)))
(let ((.def_586 (and .def_575 .def_585)))
(let ((.def_589 (and .def_586 .def_588)))
(let ((.def_590 (or .def_479 .def_589)))
(let ((.def_591 (or b.EVENT.1__AT2 .def_590)))
(let ((.def_596 (and .def_591 .def_595)))
(let ((.def_615 (and .def_596 .def_614)))
(let ((.def_640 (and .def_615 .def_639)))
(let ((.def_643 (and .def_640 .def_642)))
(let ((.def_646 (and .def_643 .def_645)))
(let ((.def_647 (and .def_457 .def_646)))
(let ((.def_664 (and .def_647 .def_663)))
(let ((.def_676 (and .def_664 .def_675)))
(let ((.def_486 (* 49.0 b.delta__AT2)))
(let ((.def_487 (* b.delta__AT2 .def_486)))
(let ((.def_488 (* (- 1.0) .def_487)))
(let ((.def_484 (* 10.0 b.speed_y__AT2)))
(let ((.def_485 (* b.delta__AT2 .def_484)))
(let ((.def_489 (+ .def_485 .def_488)))
(let ((.def_492 (+ .def_490 .def_489)))
(let ((.def_493 (<= 0.0 .def_492)))
(let ((.def_520 (not .def_493)))
(let ((.def_505 (+ .def_495 .def_504)))
(let ((.def_506 (<= 0.0 .def_505)))
(let ((.def_521 (and .def_506 .def_520)))
(let ((.def_516 (<= b.speed_y__AT2 0.0 )))
(let ((.def_462 (<= 0.0 b.y__AT2)))
(let ((.def_519 (or .def_462 .def_516)))
(let ((.def_522 (or .def_519 .def_521)))
(let ((.def_515 (<= b.y__AT2 0.0 )))
(let ((.def_517 (and .def_515 .def_516)))
(let ((.def_510 (<= .def_505 0.0 )))
(let ((.def_511 (not .def_510)))
(let ((.def_508 (= .def_492 0.0 )))
(let ((.def_509 (not .def_508)))
(let ((.def_512 (or .def_509 .def_511)))
(let ((.def_507 (or .def_493 .def_506)))
(let ((.def_513 (and .def_507 .def_512)))
(let ((.def_496 (* b.speed_y__AT2 .def_495)))
(let ((.def_497 (* 98.0 b.y__AT2)))
(let ((.def_499 (+ .def_497 .def_496)))
(let ((.def_502 (<= .def_499 0.0 )))
(let ((.def_503 (not .def_502)))
(let ((.def_514 (or .def_503 .def_513)))
(let ((.def_518 (or .def_514 .def_517)))
(let ((.def_523 (and .def_518 .def_522)))
(let ((.def_500 (<= 0.0 .def_499)))
(let ((.def_501 (not .def_500)))
(let ((.def_524 (or .def_501 .def_523)))
(let ((.def_483 (not .def_482)))
(let ((.def_494 (or .def_483 .def_493)))
(let ((.def_525 (and .def_494 .def_524)))
(let ((.def_526 (or .def_480 .def_525)))
(let ((.def_151 (not b.counter.0__AT1)))
(let ((.def_472 (or b.counter.1__AT1 .def_151)))
(let ((.def_473 (or b.counter.2__AT1 .def_472)))
(let ((.def_139 (not b.counter.1__AT1)))
(let ((.def_467 (and .def_139 .def_151)))
(let ((.def_146 (not b.counter.2__AT1)))
(let ((.def_471 (or .def_146 .def_467)))
(let ((.def_474 (and .def_471 .def_473)))
(let ((.def_475 (or b.counter.3__AT1 .def_474)))
(let ((.def_468 (or b.counter.2__AT1 .def_467)))
(let ((.def_466 (or .def_139 .def_146)))
(let ((.def_469 (and .def_466 .def_468)))
(let ((.def_161 (not b.counter.3__AT1)))
(let ((.def_470 (or .def_161 .def_469)))
(let ((.def_476 (and .def_470 .def_475)))
(let ((.def_463 (and .def_67 .def_462)))
(let ((.def_460 (or .def_457 .def_459)))
(let ((.def_450 (or .def_339 .def_351)))
(let ((.def_454 (or b.counter.3__AT2 .def_450)))
(let ((.def_451 (or b.counter.2__AT2 .def_450)))
(let ((.def_449 (or .def_346 .def_351)))
(let ((.def_452 (and .def_449 .def_451)))
(let ((.def_453 (or .def_361 .def_452)))
(let ((.def_455 (and .def_453 .def_454)))
(let ((.def_461 (and .def_455 .def_460)))
(let ((.def_464 (and .def_461 .def_463)))
(let ((.def_283 (<= 0.0 b.delta__AT1)))
(let ((.def_261 (not b.EVENT.0__AT1)))
(let ((.def_259 (not b.EVENT.1__AT1)))
(let ((.def_280 (and .def_259 .def_261)))
(let ((.def_281 (not .def_280)))
(let ((.def_445 (or .def_281 .def_283)))
(let ((.def_446 (or b.EVENT.1__AT1 .def_445)))
(let ((.def_383 (= b.counter.0__AT1 b.counter.0__AT2)))
(let ((.def_381 (= b.counter.1__AT1 b.counter.1__AT2)))
(let ((.def_379 (= b.counter.2__AT1 b.counter.2__AT2)))
(let ((.def_378 (= b.counter.3__AT1 b.counter.3__AT2)))
(let ((.def_380 (and .def_378 .def_379)))
(let ((.def_382 (and .def_380 .def_381)))
(let ((.def_384 (and .def_382 .def_383)))
(let ((.def_442 (or .def_281 .def_384)))
(let ((.def_443 (or b.EVENT.1__AT1 .def_442)))
(let ((.def_434 (* (- 5.0) b.speed_y__AT2)))
(let ((.def_305 (* (- 49.0) b.delta__AT1)))
(let ((.def_435 (+ .def_305 .def_434)))
(let ((.def_296 (* 5.0 b.speed_y__AT1)))
(let ((.def_436 (+ .def_296 .def_435)))
(let ((.def_437 (= .def_436 0.0 )))
(let ((.def_425 (* b.speed_y__AT1 b.delta__AT1)))
(let ((.def_426 (* 10.0 .def_425)))
(let ((.def_423 (* b.delta__AT1 b.delta__AT1)))
(let ((.def_424 (* (- 49.0) .def_423)))
(let ((.def_427 (+ .def_424 .def_426)))
(let ((.def_428 (* (- 10.0) b.y__AT2)))
(let ((.def_431 (+ .def_428 .def_427)))
(let ((.def_291 (* 10.0 b.y__AT1)))
(let ((.def_432 (+ .def_291 .def_431)))
(let ((.def_433 (= .def_432 0.0 )))
(let ((.def_438 (and .def_433 .def_437)))
(let ((.def_439 (or .def_281 .def_438)))
(let ((.def_389 (= b.y__AT1 b.y__AT2)))
(let ((.def_377 (= b.speed_y__AT1 b.speed_y__AT2)))
(let ((.def_420 (and .def_377 .def_389)))
(let ((.def_417 (= b.delta__AT1 0.0 )))
(let ((.def_418 (and .def_280 .def_417)))
(let ((.def_419 (not .def_418)))
(let ((.def_421 (or .def_419 .def_420)))
(let ((.def_422 (or b.EVENT.1__AT1 .def_421)))
(let ((.def_440 (and .def_422 .def_439)))
(let ((.def_399 (= b.time__AT1 b.time__AT2)))
(let ((.def_411 (and .def_389 .def_399)))
(let ((.def_412 (and .def_377 .def_411)))
(let ((.def_413 (and .def_384 .def_412)))
(let ((.def_414 (or .def_259 .def_413)))
(let ((.def_402 (* (- 1.0) b.time__AT2)))
(let ((.def_405 (+ b.delta__AT1 .def_402)))
(let ((.def_406 (+ b.time__AT1 .def_405)))
(let ((.def_407 (= .def_406 0.0 )))
(let ((.def_408 (or .def_281 .def_407)))
(let ((.def_409 (or b.EVENT.1__AT1 .def_408)))
(let ((.def_400 (or .def_280 .def_399)))
(let ((.def_401 (or b.EVENT.1__AT1 .def_400)))
(let ((.def_410 (and .def_401 .def_409)))
(let ((.def_415 (and .def_410 .def_414)))
(let ((.def_395 (= .def_281 b.event_is_timed__AT2)))
(let ((.def_393 (= b.event_is_timed__AT1 .def_280)))
(let ((.def_396 (and .def_393 .def_395)))
(let ((.def_385 (and .def_377 .def_384)))
(let ((.def_330 (<= 0.0 b.speed_y__AT1)))
(let ((.def_331 (not .def_330)))
(let ((.def_329 (= b.y__AT1 0.0 )))
(let ((.def_332 (and .def_329 .def_331)))
(let ((.def_386 (or .def_332 .def_385)))
(let ((.def_352 (or b.counter.0__AT1 .def_351)))
(let ((.def_350 (or .def_151 b.counter.0__AT2)))
(let ((.def_353 (and .def_350 .def_352)))
(let ((.def_354 (and .def_339 .def_353)))
(let ((.def_355 (or b.counter.1__AT1 .def_354)))
(let ((.def_349 (or .def_139 b.counter.1__AT2)))
(let ((.def_356 (and .def_349 .def_355)))
(let ((.def_369 (and .def_346 .def_356)))
(let ((.def_370 (or b.counter.2__AT1 .def_369)))
(let ((.def_364 (and .def_151 .def_339)))
(let ((.def_365 (or b.counter.1__AT1 .def_364)))
(let ((.def_366 (and .def_349 .def_365)))
(let ((.def_367 (and b.counter.2__AT2 .def_366)))
(let ((.def_368 (or .def_146 .def_367)))
(let ((.def_371 (and .def_368 .def_370)))
(let ((.def_372 (and b.counter.3__AT2 .def_371)))
(let ((.def_373 (or b.counter.3__AT1 .def_372)))
(let ((.def_357 (and b.counter.2__AT2 .def_356)))
(let ((.def_358 (or b.counter.2__AT1 .def_357)))
(let ((.def_343 (or b.counter.1__AT1 b.counter.1__AT2)))
(let ((.def_341 (and .def_339 b.counter.0__AT2)))
(let ((.def_342 (or .def_139 .def_341)))
(let ((.def_344 (and .def_342 .def_343)))
(let ((.def_347 (and .def_344 .def_346)))
(let ((.def_348 (or .def_146 .def_347)))
(let ((.def_359 (and .def_348 .def_358)))
(let ((.def_362 (and .def_359 .def_361)))
(let ((.def_363 (or .def_161 .def_362)))
(let ((.def_374 (and .def_363 .def_373)))
(let ((.def_334 (* (- 1.0) b.speed_y__AT1)))
(let ((.def_335 (* .def_134 .def_334)))
(let ((.def_337 (= .def_335 b.speed_y__AT2)))
(let ((.def_375 (and .def_337 .def_374)))
(let ((.def_333 (not .def_332)))
(let ((.def_376 (or .def_333 .def_375)))
(let ((.def_387 (and .def_376 .def_386)))
(let ((.def_390 (and .def_387 .def_389)))
(let ((.def_391 (or .def_280 .def_390)))
(let ((.def_392 (or b.EVENT.1__AT1 .def_391)))
(let ((.def_397 (and .def_392 .def_396)))
(let ((.def_416 (and .def_397 .def_415)))
(let ((.def_441 (and .def_416 .def_440)))
(let ((.def_444 (and .def_441 .def_443)))
(let ((.def_447 (and .def_444 .def_446)))
(let ((.def_448 (and .def_259 .def_447)))
(let ((.def_465 (and .def_448 .def_464)))
(let ((.def_477 (and .def_465 .def_476)))
(let ((.def_287 (* 49.0 b.delta__AT1)))
(let ((.def_288 (* b.delta__AT1 .def_287)))
(let ((.def_289 (* (- 1.0) .def_288)))
(let ((.def_285 (* 10.0 b.speed_y__AT1)))
(let ((.def_286 (* b.delta__AT1 .def_285)))
(let ((.def_290 (+ .def_286 .def_289)))
(let ((.def_293 (+ .def_291 .def_290)))
(let ((.def_294 (<= 0.0 .def_293)))
(let ((.def_321 (not .def_294)))
(let ((.def_306 (+ .def_296 .def_305)))
(let ((.def_307 (<= 0.0 .def_306)))
(let ((.def_322 (and .def_307 .def_321)))
(let ((.def_317 (<= b.speed_y__AT1 0.0 )))
(let ((.def_264 (<= 0.0 b.y__AT1)))
(let ((.def_320 (or .def_264 .def_317)))
(let ((.def_323 (or .def_320 .def_322)))
(let ((.def_316 (<= b.y__AT1 0.0 )))
(let ((.def_318 (and .def_316 .def_317)))
(let ((.def_311 (<= .def_306 0.0 )))
(let ((.def_312 (not .def_311)))
(let ((.def_309 (= .def_293 0.0 )))
(let ((.def_310 (not .def_309)))
(let ((.def_313 (or .def_310 .def_312)))
(let ((.def_308 (or .def_294 .def_307)))
(let ((.def_314 (and .def_308 .def_313)))
(let ((.def_297 (* b.speed_y__AT1 .def_296)))
(let ((.def_298 (* 98.0 b.y__AT1)))
(let ((.def_300 (+ .def_298 .def_297)))
(let ((.def_303 (<= .def_300 0.0 )))
(let ((.def_304 (not .def_303)))
(let ((.def_315 (or .def_304 .def_314)))
(let ((.def_319 (or .def_315 .def_318)))
(let ((.def_324 (and .def_319 .def_323)))
(let ((.def_301 (<= 0.0 .def_300)))
(let ((.def_302 (not .def_301)))
(let ((.def_325 (or .def_302 .def_324)))
(let ((.def_284 (not .def_283)))
(let ((.def_295 (or .def_284 .def_294)))
(let ((.def_326 (and .def_295 .def_325)))
(let ((.def_327 (or .def_281 .def_326)))
(let ((.def_38 (not b.counter.0__AT0)))
(let ((.def_273 (or b.counter.1__AT0 .def_38)))
(let ((.def_274 (or b.counter.2__AT0 .def_273)))
(let ((.def_41 (not b.counter.2__AT0)))
(let ((.def_36 (not b.counter.1__AT0)))
(let ((.def_39 (and .def_36 .def_38)))
(let ((.def_272 (or .def_39 .def_41)))
(let ((.def_275 (and .def_272 .def_274)))
(let ((.def_276 (or b.counter.3__AT0 .def_275)))
(let ((.def_269 (or .def_39 b.counter.2__AT0)))
(let ((.def_268 (or .def_36 .def_41)))
(let ((.def_270 (and .def_268 .def_269)))
(let ((.def_44 (not b.counter.3__AT0)))
(let ((.def_271 (or .def_44 .def_270)))
(let ((.def_277 (and .def_271 .def_276)))
(let ((.def_265 (and .def_67 .def_264)))
(let ((.def_262 (or .def_259 .def_261)))
(let ((.def_252 (or .def_139 .def_151)))
(let ((.def_256 (or b.counter.3__AT1 .def_252)))
(let ((.def_253 (or b.counter.2__AT1 .def_252)))
(let ((.def_251 (or .def_146 .def_151)))
(let ((.def_254 (and .def_251 .def_253)))
(let ((.def_255 (or .def_161 .def_254)))
(let ((.def_257 (and .def_255 .def_256)))
(let ((.def_263 (and .def_257 .def_262)))
(let ((.def_266 (and .def_263 .def_265)))
(let ((.def_76 (<= 0.0 b.delta__AT0)))
(let ((.def_57 (not b.EVENT.0__AT0)))
(let ((.def_55 (not b.EVENT.1__AT0)))
(let ((.def_73 (and .def_55 .def_57)))
(let ((.def_74 (not .def_73)))
(let ((.def_247 (or .def_74 .def_76)))
(let ((.def_248 (or b.EVENT.1__AT0 .def_247)))
(let ((.def_183 (= b.counter.0__AT0 b.counter.0__AT1)))
(let ((.def_181 (= b.counter.1__AT0 b.counter.1__AT1)))
(let ((.def_179 (= b.counter.2__AT0 b.counter.2__AT1)))
(let ((.def_178 (= b.counter.3__AT0 b.counter.3__AT1)))
(let ((.def_180 (and .def_178 .def_179)))
(let ((.def_182 (and .def_180 .def_181)))
(let ((.def_184 (and .def_182 .def_183)))
(let ((.def_244 (or .def_74 .def_184)))
(let ((.def_245 (or b.EVENT.1__AT0 .def_244)))
(let ((.def_236 (* (- 5.0) b.speed_y__AT1)))
(let ((.def_103 (* (- 49.0) b.delta__AT0)))
(let ((.def_237 (+ .def_103 .def_236)))
(let ((.def_92 (* 5.0 b.speed_y__AT0)))
(let ((.def_238 (+ .def_92 .def_237)))
(let ((.def_239 (= .def_238 0.0 )))
(let ((.def_225 (* b.speed_y__AT0 b.delta__AT0)))
(let ((.def_226 (* 10.0 .def_225)))
(let ((.def_223 (* b.delta__AT0 b.delta__AT0)))
(let ((.def_224 (* (- 49.0) .def_223)))
(let ((.def_227 (+ .def_224 .def_226)))
(let ((.def_229 (* (- 10.0) b.y__AT1)))
(let ((.def_232 (+ .def_229 .def_227)))
(let ((.def_86 (* 10.0 b.y__AT0)))
(let ((.def_233 (+ .def_86 .def_232)))
(let ((.def_234 (= .def_233 0.0 )))
(let ((.def_240 (and .def_234 .def_239)))
(let ((.def_241 (or .def_74 .def_240)))
(let ((.def_189 (= b.y__AT0 b.y__AT1)))
(let ((.def_177 (= b.speed_y__AT0 b.speed_y__AT1)))
(let ((.def_220 (and .def_177 .def_189)))
(let ((.def_217 (= b.delta__AT0 0.0 )))
(let ((.def_218 (and .def_73 .def_217)))
(let ((.def_219 (not .def_218)))
(let ((.def_221 (or .def_219 .def_220)))
(let ((.def_222 (or b.EVENT.1__AT0 .def_221)))
(let ((.def_242 (and .def_222 .def_241)))
(let ((.def_199 (= b.time__AT0 b.time__AT1)))
(let ((.def_211 (and .def_189 .def_199)))
(let ((.def_212 (and .def_177 .def_211)))
(let ((.def_213 (and .def_184 .def_212)))
(let ((.def_214 (or .def_55 .def_213)))
(let ((.def_202 (* (- 1.0) b.time__AT1)))
(let ((.def_205 (+ b.delta__AT0 .def_202)))
(let ((.def_206 (+ b.time__AT0 .def_205)))
(let ((.def_207 (= .def_206 0.0 )))
(let ((.def_208 (or .def_74 .def_207)))
(let ((.def_209 (or b.EVENT.1__AT0 .def_208)))
(let ((.def_200 (or .def_73 .def_199)))
(let ((.def_201 (or b.EVENT.1__AT0 .def_200)))
(let ((.def_210 (and .def_201 .def_209)))
(let ((.def_215 (and .def_210 .def_214)))
(let ((.def_195 (= .def_74 b.event_is_timed__AT1)))
(let ((.def_193 (= b.event_is_timed__AT0 .def_73)))
(let ((.def_196 (and .def_193 .def_195)))
(let ((.def_185 (and .def_177 .def_184)))
(let ((.def_128 (<= 0.0 b.speed_y__AT0)))
(let ((.def_129 (not .def_128)))
(let ((.def_127 (= b.y__AT0 0.0 )))
(let ((.def_130 (and .def_127 .def_129)))
(let ((.def_186 (or .def_130 .def_185)))
(let ((.def_152 (or b.counter.0__AT0 .def_151)))
(let ((.def_150 (or .def_38 b.counter.0__AT1)))
(let ((.def_153 (and .def_150 .def_152)))
(let ((.def_154 (and .def_139 .def_153)))
(let ((.def_155 (or b.counter.1__AT0 .def_154)))
(let ((.def_149 (or .def_36 b.counter.1__AT1)))
(let ((.def_156 (and .def_149 .def_155)))
(let ((.def_169 (and .def_146 .def_156)))
(let ((.def_170 (or b.counter.2__AT0 .def_169)))
(let ((.def_164 (and .def_38 .def_139)))
(let ((.def_165 (or b.counter.1__AT0 .def_164)))
(let ((.def_166 (and .def_149 .def_165)))
(let ((.def_167 (and b.counter.2__AT1 .def_166)))
(let ((.def_168 (or .def_41 .def_167)))
(let ((.def_171 (and .def_168 .def_170)))
(let ((.def_172 (and b.counter.3__AT1 .def_171)))
(let ((.def_173 (or b.counter.3__AT0 .def_172)))
(let ((.def_157 (and b.counter.2__AT1 .def_156)))
(let ((.def_158 (or b.counter.2__AT0 .def_157)))
(let ((.def_143 (or b.counter.1__AT0 b.counter.1__AT1)))
(let ((.def_141 (and .def_139 b.counter.0__AT1)))
(let ((.def_142 (or .def_36 .def_141)))
(let ((.def_144 (and .def_142 .def_143)))
(let ((.def_147 (and .def_144 .def_146)))
(let ((.def_148 (or .def_41 .def_147)))
(let ((.def_159 (and .def_148 .def_158)))
(let ((.def_162 (and .def_159 .def_161)))
(let ((.def_163 (or .def_44 .def_162)))
(let ((.def_174 (and .def_163 .def_173)))
(let ((.def_132 (* (- 1.0) b.speed_y__AT0)))
(let ((.def_135 (* .def_132 .def_134)))
(let ((.def_137 (= .def_135 b.speed_y__AT1)))
(let ((.def_175 (and .def_137 .def_174)))
(let ((.def_131 (not .def_130)))
(let ((.def_176 (or .def_131 .def_175)))
(let ((.def_187 (and .def_176 .def_186)))
(let ((.def_190 (and .def_187 .def_189)))
(let ((.def_191 (or .def_73 .def_190)))
(let ((.def_192 (or b.EVENT.1__AT0 .def_191)))
(let ((.def_197 (and .def_192 .def_196)))
(let ((.def_216 (and .def_197 .def_215)))
(let ((.def_243 (and .def_216 .def_242)))
(let ((.def_246 (and .def_243 .def_245)))
(let ((.def_249 (and .def_246 .def_248)))
(let ((.def_250 (and .def_55 .def_249)))
(let ((.def_267 (and .def_250 .def_266)))
(let ((.def_278 (and .def_267 .def_277)))
(let ((.def_81 (* 49.0 b.delta__AT0)))
(let ((.def_82 (* b.delta__AT0 .def_81)))
(let ((.def_84 (* (- 1.0) .def_82)))
(let ((.def_78 (* 10.0 b.speed_y__AT0)))
(let ((.def_79 (* b.delta__AT0 .def_78)))
(let ((.def_85 (+ .def_79 .def_84)))
(let ((.def_88 (+ .def_86 .def_85)))
(let ((.def_89 (<= 0.0 .def_88)))
(let ((.def_119 (not .def_89)))
(let ((.def_104 (+ .def_92 .def_103)))
(let ((.def_105 (<= 0.0 .def_104)))
(let ((.def_120 (and .def_105 .def_119)))
(let ((.def_115 (<= b.speed_y__AT0 0.0 )))
(let ((.def_68 (<= 0.0 b.y__AT0)))
(let ((.def_118 (or .def_68 .def_115)))
(let ((.def_121 (or .def_118 .def_120)))
(let ((.def_114 (<= b.y__AT0 0.0 )))
(let ((.def_116 (and .def_114 .def_115)))
(let ((.def_109 (<= .def_104 0.0 )))
(let ((.def_110 (not .def_109)))
(let ((.def_107 (= .def_88 0.0 )))
(let ((.def_108 (not .def_107)))
(let ((.def_111 (or .def_108 .def_110)))
(let ((.def_106 (or .def_89 .def_105)))
(let ((.def_112 (and .def_106 .def_111)))
(let ((.def_93 (* b.speed_y__AT0 .def_92)))
(let ((.def_95 (* 98.0 b.y__AT0)))
(let ((.def_97 (+ .def_95 .def_93)))
(let ((.def_100 (<= .def_97 0.0 )))
(let ((.def_101 (not .def_100)))
(let ((.def_113 (or .def_101 .def_112)))
(let ((.def_117 (or .def_113 .def_116)))
(let ((.def_122 (and .def_117 .def_121)))
(let ((.def_98 (<= 0.0 .def_97)))
(let ((.def_99 (not .def_98)))
(let ((.def_123 (or .def_99 .def_122)))
(let ((.def_77 (not .def_76)))
(let ((.def_90 (or .def_77 .def_89)))
(let ((.def_124 (and .def_90 .def_123)))
(let ((.def_125 (or .def_74 .def_124)))
(let ((.def_69 (and .def_67 .def_68)))
(let ((.def_58 (or .def_55 .def_57)))
(let ((.def_48 (or .def_36 .def_38)))
(let ((.def_52 (or b.counter.3__AT0 .def_48)))
(let ((.def_49 (or b.counter.2__AT0 .def_48)))
(let ((.def_47 (or .def_38 .def_41)))
(let ((.def_50 (and .def_47 .def_49)))
(let ((.def_51 (or .def_44 .def_50)))
(let ((.def_53 (and .def_51 .def_52)))
(let ((.def_59 (and .def_53 .def_58)))
(let ((.def_70 (and .def_59 .def_69)))
(let ((.def_42 (and .def_39 .def_41)))
(let ((.def_45 (and .def_42 .def_44)))
(let ((.def_33 (= b.speed_y__AT0 0.0 )))
(let ((.def_30 (= b.y__AT0 10.0 )))
(let ((.def_25 (= b.time__AT0 0.0 )))
(let ((.def_27 (and .def_25 b.event_is_timed__AT0)))
(let ((.def_31 (and .def_27 .def_30)))
(let ((.def_34 (and .def_31 .def_33)))
(let ((.def_46 (and .def_34 .def_45)))
(let ((.def_71 (and .def_46 .def_70)))
(let ((.def_17 (or b.counter.1__AT4 .def_9)))
(let ((.def_18 (or b.counter.2__AT4 .def_17)))
(let ((.def_10 (and .def_6 .def_9)))
(let ((.def_16 (or .def_4 .def_10)))
(let ((.def_19 (and .def_16 .def_18)))
(let ((.def_20 (or b.counter.3__AT4 .def_19)))
(let ((.def_11 (or b.counter.2__AT4 .def_10)))
(let ((.def_7 (or .def_4 .def_6)))
(let ((.def_12 (and .def_7 .def_11)))
(let ((.def_15 (or .def_12 .def_14)))
(let ((.def_21 (and .def_15 .def_20)))
(let ((.def_22 (not .def_21)))
(let ((.def_72 (and .def_22 .def_71)))
(let ((.def_126 (and .def_72 .def_125)))
(let ((.def_279 (and .def_126 .def_278)))
(let ((.def_328 (and .def_279 .def_327)))
(let ((.def_478 (and .def_328 .def_477)))
(let ((.def_527 (and .def_478 .def_526)))
(let ((.def_677 (and .def_527 .def_676)))
(let ((.def_726 (and .def_677 .def_725)))
(let ((.def_868 (and .def_726 .def_867)))
(let ((.def_917 (and .def_868 .def_916)))
.def_917)))))))))))))))))))))))))))))))))))))))))))))))))))))))))))))))))))))))))))))))))))))))))))))))))))))))))))))))))))))))))))))))))))))))))))))))))))))))))))))))))))))))))))))))))))))))))))))))))))))))))))))))))))))))))))))))))))))))))))))))))))))))))))))))))))))))))))))))))))))))))))))))))))))))))))))))))))))))))))))))))))))))))))))))))))))))))))))))))))))))))))))))))))))))))))))))))))))))))))))))))))))))))))))))))))))))))))))))))))))))))))))))))))))))))))))))))))))))))))))))))))))))))))))))))))))))))))))))))))))))))))))))))))))))))))))))))))))))))))))))))))))))))))))))))))))))))))))))))))))))))))))))))))))))))))))))))))))))))))))))))))))))))))))))))))))))))))))))))))))))))))))))))))))))))))))))))))))))))))))))))))))))))))))))))))))))))))))))))))))))))))))))))))))))))))))))))))))))))))))))))))))))))))))))))))))
(check-sat)
(exit)
